NAME : KROA99C.25769.tour
COMMENT : Cost = 0_25769
COMMENT : Found by LKH [Keld Helsgaun] Sun Sep 17 16:52:41 2017
TYPE : TOUR
DIMENSION : 99
TOUR_SECTION
1
91
7
96
74
18
69
21
15
87
93
17
37
9
89
48
5
62
46
73
58
16
14
10
44
22
59
61
34
85
26
19
11
54
6
56
50
57
60
24
80
68
63
39
53
2
43
72
49
81
94
12
75
32
36
4
51
77
95
38
67
84
29
47
99
40
70
13
42
45
28
33
82
8
86
76
97
90
31
20
71
83
35
98
23
78
52
65
25
64
3
55
79
30
88
41
66
27
92
-1
EOF
